\ Model Cl_50_Ins_1.lp
\ LP format - for model browsing. Use MPS format to capture full model detail.
Maximize
 
Subject To
 obj1: y[0] = 0
 obj2: y[1] = 0
 obj1_Exp: - y[0] + 98 x[0] + 95 x[1] + 90 x[2] + 87 x[3] + 87 x[4]
   + 87 x[5] + 86 x[6] + 81 x[7] + 81 x[8] + 79 x[9] + 75 x[10] + 75 x[11]
   + 74 x[12] + 70 x[13] + 69 x[14] + 69 x[15] + 61 x[16] + 59 x[17]
   + 56 x[18] + 54 x[19] + 53 x[20] + 52 x[21] + 51 x[22] + 51 x[23]
   + 49 x[24] + 48 x[25] + 47 x[26] + 46 x[27] + 45 x[28] + 43 x[29]
   + 42 x[30] + 41 x[31] + 41 x[32] + 35 x[33] + 34 x[34] + 33 x[35]
   + 33 x[36] + 30 x[37] + 26 x[38] + 23 x[39] + 21 x[40] + 21 x[41]
   + 13 x[42] + 13 x[43] + 13 x[44] + 10 x[45] + 5 x[46] + 5 x[47]
   + 2 x[48] + 2 x[49] = 0
 obj2_Exp: - y[1] + 24 x[0] + 90 x[1] + 26 x[2] + 84 x[3] + 83 x[4]
   + 21 x[5] + 83 x[6] + 77 x[7] + 60 x[8] + 49 x[9] + 55 x[10] + 19 x[11]
   + 51 x[12] + 26 x[13] + 2 x[14] + 62 x[15] + 76 x[16] + 43 x[17]
   + 92 x[18] + 29 x[19] + 31 x[20] + 10 x[21] + 45 x[22] + 29 x[23]
   + 37 x[24] + 58 x[25] + 75 x[26] + 98 x[27] + 75 x[28] + 50 x[29]
   + 10 x[30] + 63 x[31] + 46 x[32] + 67 x[33] + 42 x[34] + 53 x[35]
   + 11 x[36] + 90 x[37] + 50 x[38] + 93 x[39] + 98 x[40] + 30 x[41]
   + 7 x[42] + 40 x[43] + 88 x[44] + 10 x[45] + 72 x[46] + 15 x[47]
   + 75 x[48] + 28 x[49] = 0
 Budget: 108 x[0] + 105 x[1] + 100 x[2] + 97 x[3] + 97 x[4] + 97 x[5]
   + 96 x[6] + 91 x[7] + 91 x[8] + 89 x[9] + 85 x[10] + 85 x[11] + 84 x[12]
   + 80 x[13] + 79 x[14] + 79 x[15] + 71 x[16] + 69 x[17] + 66 x[18]
   + 64 x[19] + 63 x[20] + 62 x[21] + 61 x[22] + 61 x[23] + 59 x[24]
   + 58 x[25] + 57 x[26] + 56 x[27] + 55 x[28] + 53 x[29] + 52 x[30]
   + 51 x[31] + 51 x[32] + 45 x[33] + 44 x[34] + 43 x[35] + 43 x[36]
   + 40 x[37] + 36 x[38] + 33 x[39] + 31 x[40] + 31 x[41] + 23 x[42]
   + 23 x[43] + 23 x[44] + 20 x[45] + 15 x[46] + 15 x[47] + 12 x[48]
   + 12 x[49] <= 1002
Bounds
Binaries
 x[0] x[1] x[2] x[3] x[4] x[5] x[6] x[7] x[8] x[9] x[10] x[11] x[12] x[13]
 x[14] x[15] x[16] x[17] x[18] x[19] x[20] x[21] x[22] x[23] x[24] x[25]
 x[26] x[27] x[28] x[29] x[30] x[31] x[32] x[33] x[34] x[35] x[36] x[37]
 x[38] x[39] x[40] x[41] x[42] x[43] x[44] x[45] x[46] x[47] x[48] x[49]
Generals
 y[0] y[1]
End
